datasets/15l7i.nl
g3 3 1 0	# problem 15l7i
 406 133 1 0 112	# vars, constraints, objectives, ranges, eqns
 0 1	# nonlinear constraints, objectives
 0 0	# network constraints: nonlinear, linear
 0 168 0	# nonlinear vars in constraints, objectives, both
 0 0 0 1	# linear network variables; functions; arith, flags
 0 238 0 0 168	# discrete variables: binary, integer, nonlinear (b,c,o)
 1568 378	# nonzeros in Jacobian, gradients
 0 0	# max name lengths: constraints, variables
 0 0 0 0 0	# common exprs: b,c,o,c1,o1
b
2 0
2 0
2 0
2 0
2 0
2 0
2 0
2 0
2 0
2 0
2 0
2 0
2 0
2 0
2 0
2 0
2 0
2 0
2 0
2 0
2 0
2 0
2 0
2 0
2 0
2 0
2 0
2 0
2 0
2 0
2 0
2 0
2 0
2 0
2 0
2 0
2 0
2 0
2 0
2 0
2 0
2 0
2 0
2 0
2 0
2 0
2 0
2 0
2 0
2 0
2 0
2 0
2 0
2 0
2 0
2 0
2 0
2 0
2 0
2 0
2 0
2 0
2 0
2 0
2 0
2 0
2 0
2 0
2 0
2 0
2 0
2 0
2 0
2 0
2 0
2 0
2 0
2 0
2 0
2 0
2 0
2 0
2 0
2 0
2 0
2 0
2 0
2 0
2 0
2 0
2 0
2 0
2 0
2 0
2 0
2 0
2 0
2 0
2 0
2 0
2 0
2 0
2 0
2 0
2 0
2 0
2 0
2 0
2 0
2 0
2 0
2 0
2 0
2 0
2 0
2 0
2 0
2 0
2 0
2 0
2 0
2 0
2 0
2 0
2 0
2 0
2 0
2 0
2 0
2 0
2 0
2 0
2 0
2 0
2 0
2 0
2 0
2 0
2 0
2 0
2 0
2 0
2 0
2 0
2 0
2 0
2 0
2 0
2 0
2 0
2 0
2 0
2 0
2 0
2 0
2 0
2 0
2 0
2 0
2 0
2 0
2 0
2 0
2 0
2 0
2 0
2 0
2 0
0 0 70
0 0 40
0 0 130
0 0 20
0 0 100
0 0 120
0 0 70
0 0 70
0 0 40
0 0 130
0 0 20
0 0 100
0 0 120
0 0 70
0 0 70
0 0 40
0 0 130
0 0 20
0 0 100
0 0 120
0 0 70
0 0 70
0 0 40
0 0 130
0 0 20
0 0 100
0 0 120
0 0 70
0 0 70
0 0 40
0 0 130
0 0 20
0 0 100
0 0 120
0 0 70
0 0 70
0 0 40
0 0 130
0 0 20
0 0 100
0 0 120
0 0 70
0 0 40
0 0 80
0 0 70
0 0 70
0 0 100
0 0 80
0 0 40
0 0 40
0 0 80
0 0 70
0 0 70
0 0 100
0 0 80
0 0 40
0 0 40
0 0 80
0 0 70
0 0 70
0 0 100
0 0 80
0 0 40
0 0 40
0 0 80
0 0 70
0 0 70
0 0 100
0 0 80
0 0 40
0 0 40
0 0 80
0 0 70
0 0 70
0 0 100
0 0 80
0 0 40
0 0 40
0 0 80
0 0 70
0 0 70
0 0 100
0 0 80
0 0 40
0 0 40
0 0 80
0 0 80
0 0 50
0 0 110
0 0 110
0 0 60
0 0 40
0 0 80
0 0 80
0 0 50
0 0 110
0 0 110
0 0 60
0 0 40
0 0 80
0 0 80
0 0 50
0 0 110
0 0 110
0 0 60
0 0 40
0 0 80
0 0 80
0 0 50
0 0 110
0 0 110
0 0 60
0 0 40
0 0 80
0 0 80
0 0 50
0 0 110
0 0 110
0 0 60
0 0 40
0 0 80
0 0 80
0 0 50
0 0 110
0 0 110
0 0 60
0 0 50
0 0 100
0 0 100
0 0 70
0 0 80
0 0 70
0 0 80
0 0 50
0 0 100
0 0 100
0 0 70
0 0 80
0 0 70
0 0 80
0 0 50
0 0 100
0 0 100
0 0 70
0 0 80
0 0 70
0 0 80
0 0 50
0 0 100
0 0 100
0 0 70
0 0 80
0 0 70
0 0 80
0 0 50
0 0 100
0 0 100
0 0 70
0 0 80
0 0 70
0 0 80
0 0 50
0 0 100
0 0 100
0 0 70
0 0 80
0 0 70
0 0 80
0 0 200
0 0 100
0 0 20
0 0 190
0 0 10
0 0 20
0 0 150
0 0 200
0 0 100
0 0 20
0 0 190
0 0 10
0 0 20
0 0 150
0 0 200
0 0 100
0 0 20
0 0 190
0 0 10
0 0 20
0 0 150
0 0 200
0 0 100
0 0 20
0 0 190
0 0 10
0 0 20
0 0 150
0 0 200
0 0 100
0 0 20
0 0 190
0 0 10
0 0 20
0 0 150
0 0 200
0 0 100
0 0 20
0 0 190
0 0 10
0 0 20
0 0 150
0 0 100
0 0 100
0 0 100
0 0 80
0 0 90
0 0 100
0 0 100
0 0 90
0 0 90
0 0 100
0 0 100
0 0 100
0 0 100
0 0 100
0 0 60
0 0 100
0 0 70
0 0 100
0 0 100
0 0 90
0 0 100
0 0 100
0 0 100
0 0 100
0 0 100
0 0 100
0 0 100
0 0 100
r
4 70
4 40
4 130
4 20
4 100
4 120
4 70
4 40
4 80
4 70
4 70
4 100
4 80
4 40
4 40
4 80
4 80
4 50
4 110
4 110
4 60
4 50
4 100
4 100
4 70
4 80
4 70
4 80
4 200
4 100
4 20
4 190
4 10
4 20
4 150
4 0
4 0
4 0
4 0
4 0
4 0
4 0
4 0
4 0
4 0
4 0
4 0
4 0
4 0
4 0
4 0
4 0
4 0
4 0
4 0
4 0
4 0
4 0
4 0
4 0
4 0
4 0
4 0
4 0
4 0
4 0
4 0
4 0
4 0
4 0
4 0
4 0
4 0
4 0
4 0
4 0
4 0
4 -110
4 -180
4 -140
4 -80
4 -90
4 -140
4 -100
4 -90
4 -90
4 -130
4 -100
4 -180
4 -160
4 -110
4 -60
4 -130
4 -70
4 -140
4 -120
4 -90
4 -100
4 -240
4 -100
4 -160
4 -180
4 -110
4 -110
4 -190
4 100
4 100
4 100
4 100
4 100
4 100
4 100
1 592
1 568
1 595
1 605
1 544
1 988
1 840
1 860
1 710
1 1090
1 550
1 480
1 530
1 550
1 690
1 592
1 568
1 595
1 605
1 544
1 988
C0
n0
C1
n0
C2
n0
C3
n0
C4
n0
C5
n0
C6
n0
C7
n0
C8
n0
C9
n0
C10
n0
C11
n0
C12
n0
C13
n0
C14
n0
C15
n0
C16
n0
C17
n0
C18
n0
C19
n0
C20
n0
C21
n0
C22
n0
C23
n0
C24
n0
C25
n0
C26
n0
C27
n0
C28
n0
C29
n0
C30
n0
C31
n0
C32
n0
C33
n0
C34
n0
C35
n0
C36
n0
C37
n0
C38
n0
C39
n0
C40
n0
C41
n0
C42
n0
C43
n0
C44
n0
C45
n0
C46
n0
C47
n0
C48
n0
C49
n0
C50
n0
C51
n0
C52
n0
C53
n0
C54
n0
C55
n0
C56
n0
C57
n0
C58
n0
C59
n0
C60
n0
C61
n0
C62
n0
C63
n0
C64
n0
C65
n0
C66
n0
C67
n0
C68
n0
C69
n0
C70
n0
C71
n0
C72
n0
C73
n0
C74
n0
C75
n0
C76
n0
C77
n0
C78
n0
C79
n0
C80
n0
C81
n0
C82
n0
C83
n0
C84
n0
C85
n0
C86
n0
C87
n0
C88
n0
C89
n0
C90
n0
C91
n0
C92
n0
C93
n0
C94
n0
C95
n0
C96
n0
C97
n0
C98
n0
C99
n0
C100
n0
C101
n0
C102
n0
C103
n0
C104
n0
C105
n0
C106
n0
C107
n0
C108
n0
C109
n0
C110
n0
C111
n0
C112
n0
C113
n0
C114
n0
C115
n0
C116
n0
C117
n0
C118
n0
C119
n0
C120
n0
C121
n0
C122
n0
C123
n0
C124
n0
C125
n0
C126
n0
C127
n0
C128
n0
C129
n0
C130
n0
C131
n0
C132
n0
O0 0
o54
28
o2
n10000
o5
o16
o3
o54
6
v0
v28
v56
v84
v112
v140
n-110
n2
o2
n10000
o5
o16
o3
o54
6
v1
v29
v57
v85
v113
v141
n-180
n2
o2
n10000
o5
o16
o3
o54
6
v2
v30
v58
v86
v114
v142
n-140
n2
o2
n10000
o5
o16
o3
o54
6
v3
v31
v59
v87
v115
v143
n-80
n2
o2
n10000
o5
o16
o3
o54
6
v4
v32
v60
v88
v116
v144
n-90
n2
o2
n10000
o5
o16
o3
o54
6
v5
v33
v61
v89
v117
v145
n-140
n2
o2
n10000
o5
o16
o3
o54
6
v6
v34
v62
v90
v118
v146
n-100
n2
o2
n10000
o5
o16
o3
o54
6
v7
v35
v63
v91
v119
v147
n-90
n2
o2
n10000
o5
o16
o3
o54
6
v8
v36
v64
v92
v120
v148
n-90
n2
o2
n10000
o5
o16
o3
o54
6
v9
v37
v65
v93
v121
v149
n-130
n2
o2
n10000
o5
o16
o3
o54
6
v10
v38
v66
v94
v122
v150
n-100
n2
o2
n10000
o5
o16
o3
o54
6
v11
v39
v67
v95
v123
v151
n-180
n2
o2
n10000
o5
o16
o3
o54
6
v12
v40
v68
v96
v124
v152
n-160
n2
o2
n10000
o5
o16
o3
o54
6
v13
v41
v69
v97
v125
v153
n-110
n2
o2
n10000
o5
o16
o3
o54
6
v14
v42
v70
v98
v126
v154
n-60
n2
o2
n10000
o5
o16
o3
o54
6
v15
v43
v71
v99
v127
v155
n-130
n2
o2
n10000
o5
o16
o3
o54
6
v16
v44
v72
v100
v128
v156
n-70
n2
o2
n10000
o5
o16
o3
o54
6
v17
v45
v73
v101
v129
v157
n-140
n2
o2
n10000
o5
o16
o3
o54
6
v18
v46
v74
v102
v130
v158
n-120
n2
o2
n10000
o5
o16
o3
o54
6
v19
v47
v75
v103
v131
v159
n-90
n2
o2
n10000
o5
o16
o3
o54
6
v20
v48
v76
v104
v132
v160
n-100
n2
o2
n10000
o5
o16
o3
o54
6
v21
v49
v77
v105
v133
v161
n-240
n2
o2
n10000
o5
o16
o3
o54
6
v22
v50
v78
v106
v134
v162
n-100
n2
o2
n10000
o5
o16
o3
o54
6
v23
v51
v79
v107
v135
v163
n-160
n2
o2
n10000
o5
o16
o3
o54
6
v24
v52
v80
v108
v136
v164
n-180
n2
o2
n10000
o5
o16
o3
o54
6
v25
v53
v81
v109
v137
v165
n-110
n2
o2
n10000
o5
o16
o3
o54
6
v26
v54
v82
v110
v138
v166
n-110
n2
o2
n10000
o5
o16
o3
o54
6
v27
v55
v83
v111
v139
v167
n-190
n2
k405
4
8
12
16
20
24
28
32
36
40
44
48
52
56
60
64
68
72
76
80
84
88
92
96
100
104
108
112
116
120
124
128
132
136
140
144
148
152
156
160
164
168
172
176
180
184
188
192
196
200
204
208
212
216
220
224
228
232
236
240
244
248
252
256
260
264
268
272
276
280
284
288
292
296
300
304
308
312
316
320
324
328
332
336
340
344
348
352
356
360
364
368
372
376
380
384
388
392
396
400
404
408
412
416
420
424
428
432
436
440
444
448
452
456
460
464
468
472
476
480
484
488
492
496
500
504
508
512
516
520
524
528
532
536
540
544
548
552
556
560
564
568
572
576
580
584
588
592
596
600
604
608
612
616
620
624
628
632
636
640
644
648
652
656
660
664
668
672
676
680
684
688
692
696
700
704
708
712
716
720
724
728
732
736
740
744
748
752
756
760
764
768
772
776
780
784
788
792
796
800
804
808
812
816
820
824
828
832
836
840
844
848
852
856
860
864
868
872
876
880
884
888
892
896
900
904
908
912
916
920
924
928
932
936
940
944
948
952
956
960
964
968
972
976
980
984
988
992
996
1000
1004
1008
1012
1016
1020
1024
1028
1032
1036
1040
1044
1048
1052
1056
1060
1064
1068
1072
1076
1080
1084
1088
1092
1096
1100
1104
1108
1112
1116
1120
1124
1128
1132
1136
1140
1144
1148
1152
1156
1160
1164
1168
1172
1176
1180
1184
1188
1192
1196
1200
1204
1208
1212
1216
1220
1224
1228
1232
1236
1240
1244
1248
1252
1256
1260
1264
1268
1272
1276
1280
1284
1288
1292
1296
1300
1304
1308
1312
1316
1320
1324
1328
1332
1336
1340
1344
1348
1352
1356
1360
1364
1368
1372
1376
1380
1384
1388
1392
1396
1400
1404
1408
1412
1416
1420
1424
1428
1432
1436
1440
1444
1448
1452
1456
1460
1464
1468
1472
1476
1480
1484
1488
1492
1496
1500
1504
1508
1512
1514
1516
1518
1520
1522
1524
1526
1528
1530
1532
1534
1536
1538
1540
1542
1544
1546
1548
1550
1552
1554
1556
1558
1560
1562
1564
1566
J0 6
168 1
175 1
182 1
189 1
196 1
203 1
J1 6
169 1
176 1
183 1
190 1
197 1
204 1
J2 6
170 1
177 1
184 1
191 1
198 1
205 1
J3 6
171 1
178 1
185 1
192 1
199 1
206 1
J4 6
172 1
179 1
186 1
193 1
200 1
207 1
J5 6
173 1
180 1
187 1
194 1
201 1
208 1
J6 6
174 1
181 1
188 1
195 1
202 1
209 1
J7 6
210 1
217 1
224 1
231 1
238 1
245 1
J8 6
211 1
218 1
225 1
232 1
239 1
246 1
J9 6
212 1
219 1
226 1
233 1
240 1
247 1
J10 6
213 1
220 1
227 1
234 1
241 1
248 1
J11 6
214 1
221 1
228 1
235 1
242 1
249 1
J12 6
215 1
222 1
229 1
236 1
243 1
250 1
J13 6
216 1
223 1
230 1
237 1
244 1
251 1
J14 6
252 1
259 1
266 1
273 1
280 1
287 1
J15 6
253 1
260 1
267 1
274 1
281 1
288 1
J16 6
254 1
261 1
268 1
275 1
282 1
289 1
J17 6
255 1
262 1
269 1
276 1
283 1
290 1
J18 6
256 1
263 1
270 1
277 1
284 1
291 1
J19 6
257 1
264 1
271 1
278 1
285 1
292 1
J20 6
258 1
265 1
272 1
279 1
286 1
293 1
J21 6
294 1
301 1
308 1
315 1
322 1
329 1
J22 6
295 1
302 1
309 1
316 1
323 1
330 1
J23 6
296 1
303 1
310 1
317 1
324 1
331 1
J24 6
297 1
304 1
311 1
318 1
325 1
332 1
J25 6
298 1
305 1
312 1
319 1
326 1
333 1
J26 6
299 1
306 1
313 1
320 1
327 1
334 1
J27 6
300 1
307 1
314 1
321 1
328 1
335 1
J28 6
336 1
343 1
350 1
357 1
364 1
371 1
J29 6
337 1
344 1
351 1
358 1
365 1
372 1
J30 6
338 1
345 1
352 1
359 1
366 1
373 1
J31 6
339 1
346 1
353 1
360 1
367 1
374 1
J32 6
340 1
347 1
354 1
361 1
368 1
375 1
J33 6
341 1
348 1
355 1
362 1
369 1
376 1
J34 6
342 1
349 1
356 1
363 1
370 1
377 1
J35 9
0 1
7 1
14 1
21 1
168 -1
210 -1
252 -1
294 -1
336 -1
J36 9
1 1
8 1
15 1
22 1
169 -1
211 -1
253 -1
295 -1
337 -1
J37 9
2 1
9 1
16 1
23 1
170 -1
212 -1
254 -1
296 -1
338 -1
J38 9
3 1
10 1
17 1
24 1
171 -1
213 -1
255 -1
297 -1
339 -1
J39 9
4 1
11 1
18 1
25 1
172 -1
214 -1
256 -1
298 -1
340 -1
J40 9
5 1
12 1
19 1
26 1
173 -1
215 -1
257 -1
299 -1
341 -1
J41 9
6 1
13 1
20 1
27 1
174 -1
216 -1
258 -1
300 -1
342 -1
J42 9
28 1
35 1
42 1
49 1
175 -1
217 -1
259 -1
301 -1
343 -1
J43 9
29 1
36 1
43 1
50 1
176 -1
218 -1
260 -1
302 -1
344 -1
J44 9
30 1
37 1
44 1
51 1
177 -1
219 -1
261 -1
303 -1
345 -1
J45 9
31 1
38 1
45 1
52 1
178 -1
220 -1
262 -1
304 -1
346 -1
J46 9
32 1
39 1
46 1
53 1
179 -1
221 -1
263 -1
305 -1
347 -1
J47 9
33 1
40 1
47 1
54 1
180 -1
222 -1
264 -1
306 -1
348 -1
J48 9
34 1
41 1
48 1
55 1
181 -1
223 -1
265 -1
307 -1
349 -1
J49 9
56 1
63 1
70 1
77 1
182 -1
224 -1
266 -1
308 -1
350 -1
J50 9
57 1
64 1
71 1
78 1
183 -1
225 -1
267 -1
309 -1
351 -1
J51 9
58 1
65 1
72 1
79 1
184 -1
226 -1
268 -1
310 -1
352 -1
J52 9
59 1
66 1
73 1
80 1
185 -1
227 -1
269 -1
311 -1
353 -1
J53 9
60 1
67 1
74 1
81 1
186 -1
228 -1
270 -1
312 -1
354 -1
J54 9
61 1
68 1
75 1
82 1
187 -1
229 -1
271 -1
313 -1
355 -1
J55 9
62 1
69 1
76 1
83 1
188 -1
230 -1
272 -1
314 -1
356 -1
J56 9
84 1
91 1
98 1
105 1
189 -1
231 -1
273 -1
315 -1
357 -1
J57 9
85 1
92 1
99 1
106 1
190 -1
232 -1
274 -1
316 -1
358 -1
J58 9
86 1
93 1
100 1
107 1
191 -1
233 -1
275 -1
317 -1
359 -1
J59 9
87 1
94 1
101 1
108 1
192 -1
234 -1
276 -1
318 -1
360 -1
J60 9
88 1
95 1
102 1
109 1
193 -1
235 -1
277 -1
319 -1
361 -1
J61 9
89 1
96 1
103 1
110 1
194 -1
236 -1
278 -1
320 -1
362 -1
J62 9
90 1
97 1
104 1
111 1
195 -1
237 -1
279 -1
321 -1
363 -1
J63 9
112 1
119 1
126 1
133 1
196 -1
238 -1
280 -1
322 -1
364 -1
J64 9
113 1
120 1
127 1
134 1
197 -1
239 -1
281 -1
323 -1
365 -1
J65 9
114 1
121 1
128 1
135 1
198 -1
240 -1
282 -1
324 -1
366 -1
J66 9
115 1
122 1
129 1
136 1
199 -1
241 -1
283 -1
325 -1
367 -1
J67 9
116 1
123 1
130 1
137 1
200 -1
242 -1
284 -1
326 -1
368 -1
J68 9
117 1
124 1
131 1
138 1
201 -1
243 -1
285 -1
327 -1
369 -1
J69 9
118 1
125 1
132 1
139 1
202 -1
244 -1
286 -1
328 -1
370 -1
J70 9
140 1
147 1
154 1
161 1
203 -1
245 -1
287 -1
329 -1
371 -1
J71 9
141 1
148 1
155 1
162 1
204 -1
246 -1
288 -1
330 -1
372 -1
J72 9
142 1
149 1
156 1
163 1
205 -1
247 -1
289 -1
331 -1
373 -1
J73 9
143 1
150 1
157 1
164 1
206 -1
248 -1
290 -1
332 -1
374 -1
J74 9
144 1
151 1
158 1
165 1
207 -1
249 -1
291 -1
333 -1
375 -1
J75 9
145 1
152 1
159 1
166 1
208 -1
250 -1
292 -1
334 -1
376 -1
J76 9
146 1
153 1
160 1
167 1
209 -1
251 -1
293 -1
335 -1
377 -1
J77 7
0 -1
28 -1
56 -1
84 -1
112 -1
140 -1
378 -1
J78 7
1 -1
29 -1
57 -1
85 -1
113 -1
141 -1
379 -1
J79 7
2 -1
30 -1
58 -1
86 -1
114 -1
142 -1
380 -1
J80 7
3 -1
31 -1
59 -1
87 -1
115 -1
143 -1
381 -1
J81 7
4 -1
32 -1
60 -1
88 -1
116 -1
144 -1
382 -1
J82 7
5 -1
33 -1
61 -1
89 -1
117 -1
145 -1
383 -1
J83 7
6 -1
34 -1
62 -1
90 -1
118 -1
146 -1
384 -1
J84 7
7 -1
35 -1
63 -1
91 -1
119 -1
147 -1
385 -1
J85 7
8 -1
36 -1
64 -1
92 -1
120 -1
148 -1
386 -1
J86 7
9 -1
37 -1
65 -1
93 -1
121 -1
149 -1
387 -1
J87 7
10 -1
38 -1
66 -1
94 -1
122 -1
150 -1
388 -1
J88 7
11 -1
39 -1
67 -1
95 -1
123 -1
151 -1
389 -1
J89 7
12 -1
40 -1
68 -1
96 -1
124 -1
152 -1
390 -1
J90 7
13 -1
41 -1
69 -1
97 -1
125 -1
153 -1
391 -1
J91 7
14 -1
42 -1
70 -1
98 -1
126 -1
154 -1
392 -1
J92 7
15 -1
43 -1
71 -1
99 -1
127 -1
155 -1
393 -1
J93 7
16 -1
44 -1
72 -1
100 -1
128 -1
156 -1
394 -1
J94 7
17 -1
45 -1
73 -1
101 -1
129 -1
157 -1
395 -1
J95 7
18 -1
46 -1
74 -1
102 -1
130 -1
158 -1
396 -1
J96 7
19 -1
47 -1
75 -1
103 -1
131 -1
159 -1
397 -1
J97 7
20 -1
48 -1
76 -1
104 -1
132 -1
160 -1
398 -1
J98 7
21 -1
49 -1
77 -1
105 -1
133 -1
161 -1
399 -1
J99 7
22 -1
50 -1
78 -1
106 -1
134 -1
162 -1
400 -1
J100 7
23 -1
51 -1
79 -1
107 -1
135 -1
163 -1
401 -1
J101 7
24 -1
52 -1
80 -1
108 -1
136 -1
164 -1
402 -1
J102 7
25 -1
53 -1
81 -1
109 -1
137 -1
165 -1
403 -1
J103 7
26 -1
54 -1
82 -1
110 -1
138 -1
166 -1
404 -1
J104 7
27 -1
55 -1
83 -1
111 -1
139 -1
167 -1
405 -1
J105 4
378 1
385 1
392 1
399 1
J106 4
379 1
386 1
393 1
400 1
J107 4
380 1
387 1
394 1
401 1
J108 4
381 1
388 1
395 1
402 1
J109 4
382 1
389 1
396 1
403 1
J110 4
383 1
390 1
397 1
404 1
J111 4
384 1
391 1
398 1
405 1
J112 35
168 1
169 1
170 1
171 1
172 1
173 1
174 1
210 1
211 1
212 1
213 1
214 1
215 1
216 1
252 1
253 1
254 1
255 1
256 1
257 1
258 1
294 1
295 1
296 1
297 1
298 1
299 1
300 1
336 1
337 1
338 1
339 1
340 1
341 1
342 1
J113 35
175 1
176 1
177 1
178 1
179 1
180 1
181 1
217 1
218 1
219 1
220 1
221 1
222 1
223 1
259 1
260 1
261 1
262 1
263 1
264 1
265 1
301 1
302 1
303 1
304 1
305 1
306 1
307 1
343 1
344 1
345 1
346 1
347 1
348 1
349 1
J114 35
182 1
183 1
184 1
185 1
186 1
187 1
188 1
224 1
225 1
226 1
227 1
228 1
229 1
230 1
266 1
267 1
268 1
269 1
270 1
271 1
272 1
308 1
309 1
310 1
311 1
312 1
313 1
314 1
350 1
351 1
352 1
353 1
354 1
355 1
356 1
J115 35
189 1
190 1
191 1
192 1
193 1
194 1
195 1
231 1
232 1
233 1
234 1
235 1
236 1
237 1
273 1
274 1
275 1
276 1
277 1
278 1
279 1
315 1
316 1
317 1
318 1
319 1
320 1
321 1
357 1
358 1
359 1
360 1
361 1
362 1
363 1
J116 35
196 1
197 1
198 1
199 1
200 1
201 1
202 1
238 1
239 1
240 1
241 1
242 1
243 1
244 1
280 1
281 1
282 1
283 1
284 1
285 1
286 1
322 1
323 1
324 1
325 1
326 1
327 1
328 1
364 1
365 1
366 1
367 1
368 1
369 1
370 1
J117 35
203 1
204 1
205 1
206 1
207 1
208 1
209 1
245 1
246 1
247 1
248 1
249 1
250 1
251 1
287 1
288 1
289 1
290 1
291 1
292 1
293 1
329 1
330 1
331 1
332 1
333 1
334 1
335 1
371 1
372 1
373 1
374 1
375 1
376 1
377 1
J118 42
0 1
1 1
2 1
3 1
4 1
5 1
6 1
28 1
29 1
30 1
31 1
32 1
33 1
34 1
56 1
57 1
58 1
59 1
60 1
61 1
62 1
84 1
85 1
86 1
87 1
88 1
89 1
90 1
112 1
113 1
114 1
115 1
116 1
117 1
118 1
140 1
141 1
142 1
143 1
144 1
145 1
146 1
J119 42
7 1
8 1
9 1
10 1
11 1
12 1
13 1
35 1
36 1
37 1
38 1
39 1
40 1
41 1
63 1
64 1
65 1
66 1
67 1
68 1
69 1
91 1
92 1
93 1
94 1
95 1
96 1
97 1
119 1
120 1
121 1
122 1
123 1
124 1
125 1
147 1
148 1
149 1
150 1
151 1
152 1
153 1
J120 42
14 1
15 1
16 1
17 1
18 1
19 1
20 1
42 1
43 1
44 1
45 1
46 1
47 1
48 1
70 1
71 1
72 1
73 1
74 1
75 1
76 1
98 1
99 1
100 1
101 1
102 1
103 1
104 1
126 1
127 1
128 1
129 1
130 1
131 1
132 1
154 1
155 1
156 1
157 1
158 1
159 1
160 1
J121 42
21 1
22 1
23 1
24 1
25 1
26 1
27 1
49 1
50 1
51 1
52 1
53 1
54 1
55 1
77 1
78 1
79 1
80 1
81 1
82 1
83 1
105 1
106 1
107 1
108 1
109 1
110 1
111 1
133 1
134 1
135 1
136 1
137 1
138 1
139 1
161 1
162 1
163 1
164 1
165 1
166 1
167 1
J122 42
168 1
169 1
170 1
171 1
172 1
173 1
174 1
175 1
176 1
177 1
178 1
179 1
180 1
181 1
182 1
183 1
184 1
185 1
186 1
187 1
188 1
189 1
190 1
191 1
192 1
193 1
194 1
195 1
196 1
197 1
198 1
199 1
200 1
201 1
202 1
203 1
204 1
205 1
206 1
207 1
208 1
209 1
J123 42
210 1
211 1
212 1
213 1
214 1
215 1
216 1
217 1
218 1
219 1
220 1
221 1
222 1
223 1
224 1
225 1
226 1
227 1
228 1
229 1
230 1
231 1
232 1
233 1
234 1
235 1
236 1
237 1
238 1
239 1
240 1
241 1
242 1
243 1
244 1
245 1
246 1
247 1
248 1
249 1
250 1
251 1
J124 42
252 1
253 1
254 1
255 1
256 1
257 1
258 1
259 1
260 1
261 1
262 1
263 1
264 1
265 1
266 1
267 1
268 1
269 1
270 1
271 1
272 1
273 1
274 1
275 1
276 1
277 1
278 1
279 1
280 1
281 1
282 1
283 1
284 1
285 1
286 1
287 1
288 1
289 1
290 1
291 1
292 1
293 1
J125 42
294 1
295 1
296 1
297 1
298 1
299 1
300 1
301 1
302 1
303 1
304 1
305 1
306 1
307 1
308 1
309 1
310 1
311 1
312 1
313 1
314 1
315 1
316 1
317 1
318 1
319 1
320 1
321 1
322 1
323 1
324 1
325 1
326 1
327 1
328 1
329 1
330 1
331 1
332 1
333 1
334 1
335 1
J126 42
336 1
337 1
338 1
339 1
340 1
341 1
342 1
343 1
344 1
345 1
346 1
347 1
348 1
349 1
350 1
351 1
352 1
353 1
354 1
355 1
356 1
357 1
358 1
359 1
360 1
361 1
362 1
363 1
364 1
365 1
366 1
367 1
368 1
369 1
370 1
371 1
372 1
373 1
374 1
375 1
376 1
377 1
J127 28
0 1
1 1
2 1
3 1
4 1
5 1
6 1
7 1
8 1
9 1
10 1
11 1
12 1
13 1
14 1
15 1
16 1
17 1
18 1
19 1
20 1
21 1
22 1
23 1
24 1
25 1
26 1
27 1
J128 28
28 1
29 1
30 1
31 1
32 1
33 1
34 1
35 1
36 1
37 1
38 1
39 1
40 1
41 1
42 1
43 1
44 1
45 1
46 1
47 1
48 1
49 1
50 1
51 1
52 1
53 1
54 1
55 1
J129 28
56 1
57 1
58 1
59 1
60 1
61 1
62 1
63 1
64 1
65 1
66 1
67 1
68 1
69 1
70 1
71 1
72 1
73 1
74 1
75 1
76 1
77 1
78 1
79 1
80 1
81 1
82 1
83 1
J130 28
84 1
85 1
86 1
87 1
88 1
89 1
90 1
91 1
92 1
93 1
94 1
95 1
96 1
97 1
98 1
99 1
100 1
101 1
102 1
103 1
104 1
105 1
106 1
107 1
108 1
109 1
110 1
111 1
J131 28
112 1
113 1
114 1
115 1
116 1
117 1
118 1
119 1
120 1
121 1
122 1
123 1
124 1
125 1
126 1
127 1
128 1
129 1
130 1
131 1
132 1
133 1
134 1
135 1
136 1
137 1
138 1
139 1
J132 28
140 1
141 1
142 1
143 1
144 1
145 1
146 1
147 1
148 1
149 1
150 1
151 1
152 1
153 1
154 1
155 1
156 1
157 1
158 1
159 1
160 1
161 1
162 1
163 1
164 1
165 1
166 1
167 1
G0 378
0 966
1 966
2 966
3 966
4 966
5 966
6 966
7 972
8 972
9 972
10 972
11 972
12 972
13 972
14 897
15 897
16 897
17 897
18 897
19 897
20 897
21 372
22 372
23 372
24 372
25 372
26 372
27 372
28 980
29 980
30 980
31 980
32 980
33 980
34 980
35 161
36 161
37 161
38 161
39 161
40 161
41 161
42 695
43 695
44 695
45 695
46 695
47 695
48 695
49 979
50 979
51 979
52 979
53 979
54 979
55 979
56 828
57 828
58 828
59 828
60 828
61 828
62 828
63 441
64 441
65 441
66 441
67 441
68 441
69 441
70 496
71 496
72 496
73 496
74 496
75 496
76 496
77 798
78 798
79 798
80 798
81 798
82 798
83 798
84 118
85 118
86 118
87 118
88 118
89 118
90 118
91 276
92 276
93 276
94 276
95 276
96 276
97 276
98 711
99 711
100 711
101 711
102 711
103 711
104 711
105 495
106 495
107 495
108 495
109 495
110 495
111 495
112 544
113 544
114 544
115 544
116 544
117 544
118 544
119 332
120 332
121 332
122 332
123 332
124 332
125 332
126 175
127 175
128 175
129 175
130 175
131 175
132 175
133 364
134 364
135 364
136 364
137 364
138 364
139 364
140 554
141 554
142 554
143 554
144 554
145 554
146 554
147 895
148 895
149 895
150 895
151 895
152 895
153 895
154 817
155 817
156 817
157 817
158 817
159 817
160 817
161 834
162 834
163 834
164 834
165 834
166 834
167 834
168 725
169 725
170 725
171 725
172 725
173 725
174 725
175 592
176 592
177 592
178 592
179 592
180 592
181 592
182 174
183 174
184 174
185 174
186 174
187 174
188 174
189 512
190 512
191 512
192 512
193 512
194 512
195 512
196 475
197 475
198 475
199 475
200 475
201 475
202 475
203 519
204 519
205 519
206 519
207 519
208 519
209 519
210 828
211 828
212 828
213 828
214 828
215 828
216 828
217 376
218 376
219 376
220 376
221 376
222 376
223 376
224 860
225 860
226 860
227 860
228 860
229 860
230 860
231 775
232 775
233 775
234 775
235 775
236 775
237 775
238 493
239 493
240 493
241 493
242 493
243 493
244 493
245 968
246 968
247 968
248 968
249 968
250 968
251 968
252 556
253 556
254 556
255 556
256 556
257 556
258 556
259 291
260 291
261 291
262 291
263 291
264 291
265 291
266 838
267 838
268 838
269 838
270 838
271 838
272 838
273 788
274 788
275 788
276 788
277 788
278 788
279 788
280 198
281 198
282 198
283 198
284 198
285 198
286 198
287 647
288 647
289 647
290 647
291 647
292 647
293 647
294 195
295 195
296 195
297 195
298 195
299 195
300 195
301 763
302 763
303 763
304 763
305 763
306 763
307 763
308 762
309 762
310 762
311 762
312 762
313 762
314 762
315 289
316 289
317 289
318 289
319 289
320 289
321 289
322 835
323 835
324 835
325 835
326 835
327 835
328 835
329 136
330 136
331 136
332 136
333 136
334 136
335 136
336 879
337 879
338 879
339 879
340 879
341 879
342 879
343 468
344 468
345 468
346 468
347 468
348 468
349 468
350 794
351 794
352 794
353 794
354 794
355 794
356 794
357 624
358 624
359 624
360 624
361 624
362 624
363 624
364 378
365 378
366 378
367 378
368 378
369 378
370 378
371 316
372 316
373 316
374 316
375 316
376 316
377 316
