datasets/15l7i.sol
 
couenne: Optimization interrupted by user.

Options
3
3
1
0
133
0
406
406
0
0
0
0
0
0
0
0
0
0
0
0
0
0
0
0
0
0
0
0
0
90
35
105.99999999821065
80
52
48
101.00000000178937
0
0
0
0
0
0
0
40
80
93
93.99999999999994
100
106.99999999999997
53.99999999999999
0
0
0
0
0
0
0
0
0
0
0
0
0
0
0
0
0
0
0
0
0
49.99999999999999
0
37
6.000000000000074
80
53
56
20.00000000000001
40
0
13.99999999999993
10
0
13.999999999999998
0
0
0
0
0
0
0
25
162
102
80
48
97
90.99999999999993
0
0
0
0
0
0
0
0
0
0
0
0
0
0
0
0
0
0
0
0
0
0
0
0
0
0
0
0
0
0
0
0
0
0
0
19.999999999999996
80
51.00000000178936
126.00000000000006
110
81.99999999999999
74.99999999821064
0
0
0
0
0
0
0
85
3
10.999999999999979
0
0
13
9.000000000000073
0
0
0
0
0
0
0
0
0
0
0
0
0
0
70
0
0
0
0
0
0
0
0
0
0
0
0
0
0
0
0
0
0
0
0
70
40
37
20
90
53
70
0
0
93
0
10
67
0
0
0
0
0
0
0
0
0
0
0
0
0
0
0
0
0
0
0
0
0
0
40
80
70
70
100
80
40
0
0
0
0
0
0
0
0
0
0
0
0
0
0
0
0
0
0
0
0
0
0
0
0
0
0
0
0
40
0
5.999999998210641
10
0
1
21.000000001789374
0
0
23
0
0
26.999999999999993
0
0
0
0
0
0
0
0
0
0
0
0
0
0
0
0
80
51.00000000178936
40
110
82
38.999999998210626
0
0
0
0
0
0
0
50
35
100
70
52
47
80
0
0
0
0
0
0
0
0
0
0
0
0
0
0
0
65
0
0
28
23
0
0
0
0
0
0
0
0
0
0
0
0
0
0
0
0
0
0
0
0
0
0
0
0
0
23.999999999999943
0
0
13.99999999999999
0
0
0
0
0
0
0
25
97
9.000000000000021
80
10
7
91
20.000000000000007
0
0
86.00000000000004
0
0
35.99999999999994
155
3
10.999999999999979
0
0
13
9.000000000000073
0
15
27.00000000000002
0
42
29.999999999999986
0
0
10
0
0
0
0
0
20
10
18.999999998210637
0
0
8.00000000000002
11.000000001789374
80
65
54.000000001789346
100
58
62
88.99999999821063
objno 0 422
